76 80
15 30 1
3 13 1
27 7 1
12 29 1
2 7 1
14 19 1
12 13 1
2 21 1
4 16 1
14 17 1
4 19 1
30 32 1
17 5 1
8 2 1
23 33 1
23 12 1
15 5 1
19 19 1
31 4 1
23 27 1
16 24 2
5 16 1
34 33 2
16 14 1
17 12 1
11 24 1
17 23 1
31 27 1
26 34 1
21 16 1
12 28 1
7 30 1
26 30 1
30 12 1
26 9 1
34 27 2
15 17 1
12 8 1
9 10 1
2 6 1
20 12 2
26 14 1
24 30 1
17 7 1
16 18 1
15 4 1
10 19 1
10 25 1
33 29 1
6 16 1
6 17 1
18 4 1
3 33 1
4 29 1
5 34 1
2 34 1
4 24 1
29 13 1
3 20 1
6 5 1
7 25 1
10 5 1
13 30 1
12 15 1
8 33 1
20 24 1
24 29 1
5 20 1
29 18 1
34 17 1
4 27 1
6 31 1
11 25 1
6 18 1
19 29 1
26 18 1
40 40 
40 40 
40 40 
40 40 
40 40 
40 40 
40 40 
40 40 
40 40 
40 40 
40 40 
40 40 
40 40 
40 40 
40 40 
40 40 
40 40 
40 40 
40 40 
40 40 
40 40 
40 40 
40 40 
40 40 
40 40 
40 40 
40 40 
40 40 
40 40 
40 40 
40 40 
40 40 
40 40 
40 40 
40 40 
40 40 
40 40 
40 40 
40 40 
40 40 
40 40 
40 40 
40 40 
40 40 
40 40 
40 40 
40 40 
40 40 
40 40 
40 40 
40 40 
40 40 
40 40 
40 40 
40 40 
40 40 
40 40 
40 40 
40 40 
40 40 
40 40 
40 40 
40 40 
40 40 
40 40 
40 40 
40 40 
40 40 
40 40 
40 40 
40 40 
40 40 
40 40 
40 40 
40 40 
40 40 
40 40 
40 40 
40 40 
40 40 
